results/res_prop_muc/res_Cimatti_mathsat_cores/QF_IDL/plan-6.cvc.smt.smt2.res
unsat
( c1002
  c1069
  c1070
  c1071
  c1094
  c1098
  c110
  c1103
  c1122
  c1139
  c114
  c1143
  c116
  c1163
  c1183
  c1184
  c1197
  c1212
  c1216
  c1221
  c1222
  c1241
  c1242
  c1262
  c1263
  c1265
  c1293
  c1313
  c1323
  c1326
  c1327
  c1328
  c1337
  c1341
  c1345
  c1354
  c1355
  c1375
  c1382
  c1404
  c1405
  c1409
  c1412
  c1413
  c1414
  c1418
  c1438
  c1441
  c1447
  c146
  c1465
  c1482
  c1486
  c1506
  c1526
  c1540
  c1555
  c1559
  c1564
  c1584
  c1611
  c1629
  c164
  c1655
  c1656
  c1662
  c1666
  c1669
  c1670
  c1671
  c168
  c1680
  c1684
  c1688
  c1697
  c1698
  c1718
  c1742
  c1747
  c1752
  c1755
  c1756
  c1757
  c1761
  c299
  c308
  c33
  c34
  c36
  c37
  c385
  c40
  c404
  c409
  c41
  c413
  c417
  c42
  c436
  c453
  c457
  c477
  c497
  c498
  c499
  c501
  c504
  c505
  c506
  c507
  c511
  c526
  c530
  c640
  c641
  c642
  c651
  c655
  c659
  c726
  c727
  c728
  c75
  c760
  c779
  c796
  c800
  c820
  c840
  c841
  c854
  c869
  c873
  c93
  c983
  c984
  c985
  c994
  c998 )
